db/inputs/58483219427947987214877324491784828034.smt2
(set-logic QF_FP)
(declare-const x0 (_ FloatingPoint 11 53))
(declare-const x1 (_ FloatingPoint 11 53))
(declare-const x2 (_ FloatingPoint 11 53))
(declare-const x3 (_ FloatingPoint 11 53))
(declare-const x4 (_ FloatingPoint 11 53))
(declare-const x5 (_ FloatingPoint 11 53))
(declare-const x6 (_ FloatingPoint 11 53))
(declare-const x7 (_ FloatingPoint 11 53))
(declare-const x8 (_ FloatingPoint 11 53))
(declare-const x9 (_ FloatingPoint 11 53))
(declare-const x10 (_ FloatingPoint 11 53))
(declare-const x11 (_ FloatingPoint 11 53))
(declare-const x12 (_ FloatingPoint 11 53))
(declare-const x13 (_ FloatingPoint 11 53))
(declare-const x14 (_ FloatingPoint 11 53))
(declare-const x15 (_ FloatingPoint 11 53))
(declare-const x16 (_ FloatingPoint 11 53))
(assert (fp.lt (fp.add RNE (fp.div RNE x0 x2) (fp.neg x2)) (fp.div RNE (fp.mul RNE x6 x16) (fp.mul RNE x15 x12))))
(assert (fp.lt (fp.div RNE (fp.add RNE x1 x7) (fp.add RNE x13 x10)) (fp.div RNE (fp.mul RNE x10 x7) (fp.add RNE x4 x12))))
(assert (fp.geq (fp.neg (fp.add RNE x0 x15)) (fp.div RNE (fp.div RNE x13 x0) (fp.mul RNE x8 x13))))
(assert (fp.lt (fp.add RNE (fp.mul RNE x5 x13) (fp.sub RNE x1 x15)) (fp.neg (fp.mul RNE x6 x4))))
(assert (fp.eq (fp.mul RNE (fp.neg x15) (fp.div RNE x5 x2)) (fp.mul RNE (fp.add RNE x1 x7) (fp.sub RNE x3 x3))))
(assert (fp.gt (fp.neg (fp.add RNE x0 x8)) (fp.add RNE (fp.sub RNE x6 x12) (fp.div RNE x8 x0))))
(assert (fp.eq (fp.neg (fp.add RNE x12 x5)) (fp.sub RNE (fp.neg x15) (fp.mul RNE x6 x4))))
(assert (fp.geq (fp.add RNE (fp.sub RNE x9 x0) (fp.mul RNE x14 x2)) (fp.sub RNE (fp.add RNE x8 x3) (fp.mul RNE x0 x10))))
(assert (fp.eq (fp.div RNE (fp.sub RNE x12 x12) (fp.mul RNE x0 x2)) (fp.add RNE (fp.div RNE x16 x2) (fp.neg x2))))
(assert (fp.eq (fp.neg (fp.mul RNE x4 x7)) (fp.mul RNE (fp.add RNE x9 x15) (fp.add RNE x11 x14))))
(check-sat)
