db/data/58483219427947987214877324491784828034.z3.out
-------------------
2500.173304404
